NAME: ch130
TYPE: TSP
COMMENT: 130 city problem (Churritz)
DIMENSION: 130
TOUR_SECTION
122
14
10
67
13
96
23
40
47
37
22
33
21
126
30
59
121
78
66
85
125
90
28
115
62
112
128
105
16
45
76
5
11
109
61
129
124
69
64
86
88
26
7
97
70
63
68
48
25
113
32
84
36
119
77
94
89
110
98
107
127
104
43
19
34
17
31
27
100
116
24
15
29
95
79
38
92
87
12
81
103
111
123
101
82
9
57
56
65
74
75
52
73
99
91
72
58
49
120
53
106
4
35
54
2
50
130
1
41
39
71
117
83
3
114
8
108
18
46
80
118
20
93
44
42
51
60
6
102
55
-1
EOF
